% File represents an instance of a Composite Structure problem to be solved by a CP framework
% Created on 2025-03-26 10:42:16.255
T = 50;
n = 36;
m = 60;
edges = [(1, 2),
(7, 8),
(13, 14),
(19, 20),
(25, 26),
(31, 32),
(2, 3),
(8, 9),
(14, 15),
(20, 21),
(26, 27),
(32, 33),
(3, 4),
(9, 10),
(15, 16),
(21, 22),
(28, 27),
(34, 33),
(4, 5),
(10, 11),
(16, 17),
(22, 23),
(28, 29),
(34, 35),
(6, 5),
(11, 12),
(18, 17),
(23, 24),
(30, 29),
(36, 35),
(7, 1),
(7, 13),
(13, 19),
(19, 25),
(25, 31),
(8, 2),
(8, 14),
(14, 20),
(20, 26),
(26, 32),
(9, 3),
(9, 15),
(15, 21),
(21, 27),
(27, 33),
(10, 4),
(10, 16),
(22, 16),
(22, 28),
(28, 34),
(11, 5),
(11, 17),
(23, 17),
(23, 29),
(29, 35),
(6, 12),
(12, 18),
(24, 18),
(30, 24),
(30, 36)];
counts = [|10, 8, 10, 18,
|8, 8, 8, 16,
|8, 8, 8, 12,
|8, 4, 8, 10,
|8, 4, 8, 4,
|8, 6, 8, 8,
|10, 12, 10, 18,
|10, 8, 10, 18,
|8, 8, 8, 16,
|8, 6, 8, 12,
|8, 6, 8, 6,
|8, 4, 8, 6,
|8, 10, 8, 18,
|8, 8, 8, 16,
|8, 8, 8, 10,
|8, 6, 8, 6,
|8, 2, 8, 4,
|8, 2, 8, 6,
|8, 8, 8, 14,
|8, 6, 8, 12,
|8, 6, 8, 10,
|8, 6, 8, 8,
|8, 4, 8, 8,
|8, 2, 8, 8,
|8, 8, 8, 10,
|8, 6, 8, 6,
|8, 4, 8, 6,
|8, 4, 8, 8,
|8, 4, 8, 6,
|8, 4, 8, 8,
|6, 8, 6, 8,
|6, 6, 6, 6,
|6, 4, 6, 6,
|6, 4, 6, 8,
|6, 2, 6, 6,
|8, 2, 8, 8|];
